Minimize
	value: tt

Subject to
tt + 1000 s_1_1 > 0.0
tt - t_1_1 - 1000.940253 s_1_1  + 0.470127 s_1_8  + 0.470127 s_1_7  > -980.695600
tt + 1000 s_2_1 > 0.0
tt - t_2_1 - 1000.920812 s_2_1  + 0.460406 s_2_8  + 0.460406 s_2_7  > -961.470233
tt + 1000 s_1_2 > 0.0
tt - t_1_2 - 1000.470127 s_1_2  + 0.470127 s_1_7  > -980.899011
tt + 1000 s_2_2 > 0.0
tt - t_2_2 - 1000.460406 s_2_2  + 0.460406 s_2_7  > -961.186733
tt + 1000 s_1_3 > 0.0
tt - t_1_3 - 1000.940253 s_1_3  + 0.470127 s_1_8  + 0.470127 s_1_7  > -998.239900
tt + 1000 s_2_3 > 0.0
tt - t_2_3 - 1000.920812 s_2_3  + 0.460406 s_2_8  + 0.460406 s_2_7  > -994.808200
tt + 1000 s_1_4 > 0.0
tt - t_1_4 - 1000.470127 s_1_4  + 0.470127 s_1_7  > -995.882900
tt + 1000 s_2_4 > 0.0
tt - t_2_4 - 1000.460406 s_2_4  + 0.460406 s_2_7  > -992.007867
tt + 1000 s_1_5 > 0.0
tt - t_1_5 - 1000.470127 s_1_5  + 0.470127 s_1_8  > -990.966178
tt + 1000 s_2_5 > 0.0
tt - t_2_5 - 1000.460406 s_2_5  + 0.460406 s_2_8  > -980.995400
tt + 1000 s_1_6 > 0.0
tt - t_1_6 - 1002.820760 s_1_6  + 0.470127 s_1_5  + 0.470127 s_1_3  + 0.470127 s_1_4  + 0.470127 s_1_2  + 0.470127 s_1_7  + 0.470127 s_1_1  > -998.262200
tt + 1000 s_2_6 > 0.0
tt - t_2_6 - 1002.762435 s_2_6  + 0.460406 s_2_5  + 0.460406 s_2_3  + 0.460406 s_2_4  + 0.460406 s_2_2  + 0.460406 s_2_7  + 0.460406 s_2_1  > -996.362100
tt + 1000 s_1_7 > 0.0
tt - t_1_7 - 1000.000000 s_1_7  > -960.999600
tt + 1000 s_2_7 > 0.0
tt - t_2_7 - 1000.000000 s_2_7  > -958.300967
tt + 1000 s_1_8 > 0.0
tt - t_1_8 - 1000.000000 s_1_8  > -962.497800
tt + 1000 s_2_8 > 0.0
tt - t_2_8 - 1000.000000 s_2_8  > -959.373400
s_1_1 + s_2_1 = 1
s_1_2 + s_2_2 = 1
s_1_3 + s_2_3 = 1
s_1_4 + s_2_4 = 1
s_1_5 + s_2_5 = 1
s_1_6 + s_2_6 = 1
s_1_7 + s_2_7 = 1
s_1_8 + s_2_8 = 1
s_1_1 + s_1_2 + 1000 r_1_1_2 >= 2
- s_1_1 - s_1_2 - 1000 r_1_1_2 >= -1001
t_1_1 - t_1_2 - 1000.000000 u_1_1_2 - 0.470127 s_1_2  + 0.470127 s_1_7  + 2000.000000 r_1_1_2 > -980.899011
s_2_1 + s_2_2 + 1000 r_2_1_2 >= 2
- s_2_1 - s_2_2 - 1000 r_2_1_2 >= -1001
t_2_1 - t_2_2 - 1000.000000 u_2_1_2 - 0.460406 s_2_2  + 0.460406 s_2_7  + 2000.000000 r_2_1_2 > -961.186733
s_1_1 + s_1_3 + 1000 r_1_1_3 >= 2
- s_1_1 - s_1_3 - 1000 r_1_1_3 >= -1001
t_1_1 - t_1_3 - 1000.000000 u_1_1_3 - 0.940253 s_1_3  + 0.470127 s_1_8  + 0.470127 s_1_7  + 2000.000000 r_1_1_3 > -998.239900
s_2_1 + s_2_3 + 1000 r_2_1_3 >= 2
- s_2_1 - s_2_3 - 1000 r_2_1_3 >= -1001
t_2_1 - t_2_3 - 1000.000000 u_2_1_3 - 0.920812 s_2_3  + 0.460406 s_2_8  + 0.460406 s_2_7  + 2000.000000 r_2_1_3 > -994.808200
s_1_1 + s_1_4 + 1000 r_1_1_4 >= 2
- s_1_1 - s_1_4 - 1000 r_1_1_4 >= -1001
t_1_1 - t_1_4 - 1000.000000 u_1_1_4 - 0.470127 s_1_4  + 0.470127 s_1_7  + 2000.000000 r_1_1_4 > -995.882900
s_2_1 + s_2_4 + 1000 r_2_1_4 >= 2
- s_2_1 - s_2_4 - 1000 r_2_1_4 >= -1001
t_2_1 - t_2_4 - 1000.000000 u_2_1_4 - 0.460406 s_2_4  + 0.460406 s_2_7  + 2000.000000 r_2_1_4 > -992.007867
s_1_1 + s_1_5 + 1000 r_1_1_5 >= 2
- s_1_1 - s_1_5 - 1000 r_1_1_5 >= -1001
t_1_1 - t_1_5 - 1000.000000 u_1_1_5 - 0.470127 s_1_5  + 0.470127 s_1_8  + 2000.000000 r_1_1_5 > -990.966178
s_2_1 + s_2_5 + 1000 r_2_1_5 >= 2
- s_2_1 - s_2_5 - 1000 r_2_1_5 >= -1001
t_2_1 - t_2_5 - 1000.000000 u_2_1_5 - 0.460406 s_2_5  + 0.460406 s_2_8  + 2000.000000 r_2_1_5 > -980.995400
t_1_6 - t_1_1 - 1000.940253 s_1_1  + 0.470127 s_1_8  + 0.470127 s_1_7  > -980.695600
t_1_6 - t_2_1 - 1000.920812 s_2_1  + 0.460406 s_2_8  + 0.460406 s_2_7  > -961.470233
t_2_6 - t_1_1 - 1000.940253 s_1_1  + 0.470127 s_1_8  + 0.470127 s_1_7  > -980.695600
t_2_6 - t_2_1 - 1000.920812 s_2_1  + 0.460406 s_2_8  + 0.460406 s_2_7  > -961.470233
t_1_1 - t_1_7 - 1000.000000 s_1_7  > -960.999600
t_1_1 - t_2_7 - 1000.000000 s_2_7  > -958.300967
t_2_1 - t_1_7 - 1000.000000 s_1_7  > -960.999600
t_2_1 - t_2_7 - 1000.000000 s_2_7  > -958.300967
t_1_1 - t_1_8 - 1000.000000 s_1_8  > -962.497800
t_1_1 - t_2_8 - 1000.000000 s_2_8  > -959.373400
t_2_1 - t_1_8 - 1000.000000 s_1_8  > -962.497800
t_2_1 - t_2_8 - 1000.000000 s_2_8  > -959.373400
s_1_2 + s_1_1 + 1000 r_1_1_2 >= 2
- s_1_2 - s_1_1 - 1000 r_1_1_2 >= -1001
t_1_2 - t_1_1 + 1000.000000 u_1_1_2 - 0.940253 s_1_1  + 0.470127 s_1_8  + 0.470127 s_1_7  + 2000.000000 r_1_1_2 > 19.304400
s_2_2 + s_2_1 + 1000 r_2_1_2 >= 2
- s_2_2 - s_2_1 - 1000 r_2_1_2 >= -1001
t_2_2 - t_2_1 + 1000.000000 u_2_1_2 - 0.920812 s_2_1  + 0.460406 s_2_8  + 0.460406 s_2_7  + 2000.000000 r_2_1_2 > 38.529767
s_1_2 + s_1_3 + 1000 r_1_2_3 >= 2
- s_1_2 - s_1_3 - 1000 r_1_2_3 >= -1001
t_1_2 - t_1_3 - 1000.000000 u_1_2_3 - 0.940253 s_1_3  + 0.470127 s_1_8  + 0.470127 s_1_7  + 2000.000000 r_1_2_3 > -998.239900
s_2_2 + s_2_3 + 1000 r_2_2_3 >= 2
- s_2_2 - s_2_3 - 1000 r_2_2_3 >= -1001
t_2_2 - t_2_3 - 1000.000000 u_2_2_3 - 0.920812 s_2_3  + 0.460406 s_2_8  + 0.460406 s_2_7  + 2000.000000 r_2_2_3 > -994.808200
s_1_2 + s_1_4 + 1000 r_1_2_4 >= 2
- s_1_2 - s_1_4 - 1000 r_1_2_4 >= -1001
t_1_2 - t_1_4 - 1000.000000 u_1_2_4 - 0.470127 s_1_4  + 0.470127 s_1_7  + 2000.000000 r_1_2_4 > -995.882900
s_2_2 + s_2_4 + 1000 r_2_2_4 >= 2
- s_2_2 - s_2_4 - 1000 r_2_2_4 >= -1001
t_2_2 - t_2_4 - 1000.000000 u_2_2_4 - 0.460406 s_2_4  + 0.460406 s_2_7  + 2000.000000 r_2_2_4 > -992.007867
s_1_2 + s_1_5 + 1000 r_1_2_5 >= 2
- s_1_2 - s_1_5 - 1000 r_1_2_5 >= -1001
t_1_2 - t_1_5 - 1000.000000 u_1_2_5 - 0.470127 s_1_5  + 0.470127 s_1_8  + 2000.000000 r_1_2_5 > -990.966178
s_2_2 + s_2_5 + 1000 r_2_2_5 >= 2
- s_2_2 - s_2_5 - 1000 r_2_2_5 >= -1001
t_2_2 - t_2_5 - 1000.000000 u_2_2_5 - 0.460406 s_2_5  + 0.460406 s_2_8  + 2000.000000 r_2_2_5 > -980.995400
t_1_6 - t_1_2 - 1000.470127 s_1_2  + 0.470127 s_1_7  > -980.899011
t_1_6 - t_2_2 - 1000.460406 s_2_2  + 0.460406 s_2_7  > -961.186733
t_2_6 - t_1_2 - 1000.470127 s_1_2  + 0.470127 s_1_7  > -980.899011
t_2_6 - t_2_2 - 1000.460406 s_2_2  + 0.460406 s_2_7  > -961.186733
t_1_2 - t_1_7 - 1000.000000 s_1_7  > -960.999600
t_1_2 - t_2_7 - 1000.000000 s_2_7  > -958.300967
t_2_2 - t_1_7 - 1000.000000 s_1_7  > -960.999600
t_2_2 - t_2_7 - 1000.000000 s_2_7  > -958.300967
s_1_2 + s_1_8 + 1000 r_1_2_8 >= 2
- s_1_2 - s_1_8 - 1000 r_1_2_8 >= -1001
t_1_2 - t_1_8 - 1000.000000 u_1_2_8 - 0.000000 s_1_8  + 2000.000000 r_1_2_8 > -962.497800
s_2_2 + s_2_8 + 1000 r_2_2_8 >= 2
- s_2_2 - s_2_8 - 1000 r_2_2_8 >= -1001
t_2_2 - t_2_8 - 1000.000000 u_2_2_8 - 0.000000 s_2_8  + 2000.000000 r_2_2_8 > -959.373400
s_1_3 + s_1_1 + 1000 r_1_1_3 >= 2
- s_1_3 - s_1_1 - 1000 r_1_1_3 >= -1001
t_1_3 - t_1_1 + 1000.000000 u_1_1_3 - 0.940253 s_1_1  + 0.470127 s_1_8  + 0.470127 s_1_7  + 2000.000000 r_1_1_3 > 19.304400
s_2_3 + s_2_1 + 1000 r_2_1_3 >= 2
- s_2_3 - s_2_1 - 1000 r_2_1_3 >= -1001
t_2_3 - t_2_1 + 1000.000000 u_2_1_3 - 0.920812 s_2_1  + 0.460406 s_2_8  + 0.460406 s_2_7  + 2000.000000 r_2_1_3 > 38.529767
s_1_3 + s_1_2 + 1000 r_1_2_3 >= 2
- s_1_3 - s_1_2 - 1000 r_1_2_3 >= -1001
t_1_3 - t_1_2 + 1000.000000 u_1_2_3 - 0.470127 s_1_2  + 0.470127 s_1_7  + 2000.000000 r_1_2_3 > 19.100989
s_2_3 + s_2_2 + 1000 r_2_2_3 >= 2
- s_2_3 - s_2_2 - 1000 r_2_2_3 >= -1001
t_2_3 - t_2_2 + 1000.000000 u_2_2_3 - 0.460406 s_2_2  + 0.460406 s_2_7  + 2000.000000 r_2_2_3 > 38.813267
s_1_3 + s_1_4 + 1000 r_1_3_4 >= 2
- s_1_3 - s_1_4 - 1000 r_1_3_4 >= -1001
t_1_3 - t_1_4 - 1000.000000 u_1_3_4 - 0.470127 s_1_4  + 0.470127 s_1_7  + 2000.000000 r_1_3_4 > -995.882900
s_2_3 + s_2_4 + 1000 r_2_3_4 >= 2
- s_2_3 - s_2_4 - 1000 r_2_3_4 >= -1001
t_2_3 - t_2_4 - 1000.000000 u_2_3_4 - 0.460406 s_2_4  + 0.460406 s_2_7  + 2000.000000 r_2_3_4 > -992.007867
s_1_3 + s_1_5 + 1000 r_1_3_5 >= 2
- s_1_3 - s_1_5 - 1000 r_1_3_5 >= -1001
t_1_3 - t_1_5 - 1000.000000 u_1_3_5 - 0.470127 s_1_5  + 0.470127 s_1_8  + 2000.000000 r_1_3_5 > -990.966178
s_2_3 + s_2_5 + 1000 r_2_3_5 >= 2
- s_2_3 - s_2_5 - 1000 r_2_3_5 >= -1001
t_2_3 - t_2_5 - 1000.000000 u_2_3_5 - 0.460406 s_2_5  + 0.460406 s_2_8  + 2000.000000 r_2_3_5 > -980.995400
t_1_6 - t_1_3 - 1000.940253 s_1_3  + 0.470127 s_1_8  + 0.470127 s_1_7  > -998.239900
t_1_6 - t_2_3 - 1000.920812 s_2_3  + 0.460406 s_2_8  + 0.460406 s_2_7  > -994.808200
t_2_6 - t_1_3 - 1000.940253 s_1_3  + 0.470127 s_1_8  + 0.470127 s_1_7  > -998.239900
t_2_6 - t_2_3 - 1000.920812 s_2_3  + 0.460406 s_2_8  + 0.460406 s_2_7  > -994.808200
t_1_3 - t_1_7 - 1000.000000 s_1_7  > -960.999600
t_1_3 - t_2_7 - 1000.000000 s_2_7  > -958.300967
t_2_3 - t_1_7 - 1000.000000 s_1_7  > -960.999600
t_2_3 - t_2_7 - 1000.000000 s_2_7  > -958.300967
t_1_3 - t_1_8 - 1000.000000 s_1_8  > -962.497800
t_1_3 - t_2_8 - 1000.000000 s_2_8  > -959.373400
t_2_3 - t_1_8 - 1000.000000 s_1_8  > -962.497800
t_2_3 - t_2_8 - 1000.000000 s_2_8  > -959.373400
s_1_4 + s_1_1 + 1000 r_1_1_4 >= 2
- s_1_4 - s_1_1 - 1000 r_1_1_4 >= -1001
t_1_4 - t_1_1 + 1000.000000 u_1_1_4 - 0.940253 s_1_1  + 0.470127 s_1_8  + 0.470127 s_1_7  + 2000.000000 r_1_1_4 > 19.304400
s_2_4 + s_2_1 + 1000 r_2_1_4 >= 2
- s_2_4 - s_2_1 - 1000 r_2_1_4 >= -1001
t_2_4 - t_2_1 + 1000.000000 u_2_1_4 - 0.920812 s_2_1  + 0.460406 s_2_8  + 0.460406 s_2_7  + 2000.000000 r_2_1_4 > 38.529767
s_1_4 + s_1_2 + 1000 r_1_2_4 >= 2
- s_1_4 - s_1_2 - 1000 r_1_2_4 >= -1001
t_1_4 - t_1_2 + 1000.000000 u_1_2_4 - 0.470127 s_1_2  + 0.470127 s_1_7  + 2000.000000 r_1_2_4 > 19.100989
s_2_4 + s_2_2 + 1000 r_2_2_4 >= 2
- s_2_4 - s_2_2 - 1000 r_2_2_4 >= -1001
t_2_4 - t_2_2 + 1000.000000 u_2_2_4 - 0.460406 s_2_2  + 0.460406 s_2_7  + 2000.000000 r_2_2_4 > 38.813267
s_1_4 + s_1_3 + 1000 r_1_3_4 >= 2
- s_1_4 - s_1_3 - 1000 r_1_3_4 >= -1001
t_1_4 - t_1_3 + 1000.000000 u_1_3_4 - 0.940253 s_1_3  + 0.470127 s_1_8  + 0.470127 s_1_7  + 2000.000000 r_1_3_4 > 1.760100
s_2_4 + s_2_3 + 1000 r_2_3_4 >= 2
- s_2_4 - s_2_3 - 1000 r_2_3_4 >= -1001
t_2_4 - t_2_3 + 1000.000000 u_2_3_4 - 0.920812 s_2_3  + 0.460406 s_2_8  + 0.460406 s_2_7  + 2000.000000 r_2_3_4 > 5.191800
s_1_4 + s_1_5 + 1000 r_1_4_5 >= 2
- s_1_4 - s_1_5 - 1000 r_1_4_5 >= -1001
t_1_4 - t_1_5 - 1000.000000 u_1_4_5 - 0.470127 s_1_5  + 0.470127 s_1_8  + 2000.000000 r_1_4_5 > -990.966178
s_2_4 + s_2_5 + 1000 r_2_4_5 >= 2
- s_2_4 - s_2_5 - 1000 r_2_4_5 >= -1001
t_2_4 - t_2_5 - 1000.000000 u_2_4_5 - 0.460406 s_2_5  + 0.460406 s_2_8  + 2000.000000 r_2_4_5 > -980.995400
t_1_6 - t_1_4 - 1000.470127 s_1_4  + 0.470127 s_1_7  > -995.882900
t_1_6 - t_2_4 - 1000.460406 s_2_4  + 0.460406 s_2_7  > -992.007867
t_2_6 - t_1_4 - 1000.470127 s_1_4  + 0.470127 s_1_7  > -995.882900
t_2_6 - t_2_4 - 1000.460406 s_2_4  + 0.460406 s_2_7  > -992.007867
t_1_4 - t_1_7 - 1000.000000 s_1_7  > -960.999600
t_1_4 - t_2_7 - 1000.000000 s_2_7  > -958.300967
t_2_4 - t_1_7 - 1000.000000 s_1_7  > -960.999600
t_2_4 - t_2_7 - 1000.000000 s_2_7  > -958.300967
s_1_4 + s_1_8 + 1000 r_1_4_8 >= 2
- s_1_4 - s_1_8 - 1000 r_1_4_8 >= -1001
t_1_4 - t_1_8 - 1000.000000 u_1_4_8 - 0.000000 s_1_8  + 2000.000000 r_1_4_8 > -962.497800
s_2_4 + s_2_8 + 1000 r_2_4_8 >= 2
- s_2_4 - s_2_8 - 1000 r_2_4_8 >= -1001
t_2_4 - t_2_8 - 1000.000000 u_2_4_8 - 0.000000 s_2_8  + 2000.000000 r_2_4_8 > -959.373400
s_1_5 + s_1_1 + 1000 r_1_1_5 >= 2
- s_1_5 - s_1_1 - 1000 r_1_1_5 >= -1001
t_1_5 - t_1_1 + 1000.000000 u_1_1_5 - 0.940253 s_1_1  + 0.470127 s_1_8  + 0.470127 s_1_7  + 2000.000000 r_1_1_5 > 19.304400
s_2_5 + s_2_1 + 1000 r_2_1_5 >= 2
- s_2_5 - s_2_1 - 1000 r_2_1_5 >= -1001
t_2_5 - t_2_1 + 1000.000000 u_2_1_5 - 0.920812 s_2_1  + 0.460406 s_2_8  + 0.460406 s_2_7  + 2000.000000 r_2_1_5 > 38.529767
s_1_5 + s_1_2 + 1000 r_1_2_5 >= 2
- s_1_5 - s_1_2 - 1000 r_1_2_5 >= -1001
t_1_5 - t_1_2 + 1000.000000 u_1_2_5 - 0.470127 s_1_2  + 0.470127 s_1_7  + 2000.000000 r_1_2_5 > 19.100989
s_2_5 + s_2_2 + 1000 r_2_2_5 >= 2
- s_2_5 - s_2_2 - 1000 r_2_2_5 >= -1001
t_2_5 - t_2_2 + 1000.000000 u_2_2_5 - 0.460406 s_2_2  + 0.460406 s_2_7  + 2000.000000 r_2_2_5 > 38.813267
s_1_5 + s_1_3 + 1000 r_1_3_5 >= 2
- s_1_5 - s_1_3 - 1000 r_1_3_5 >= -1001
t_1_5 - t_1_3 + 1000.000000 u_1_3_5 - 0.940253 s_1_3  + 0.470127 s_1_8  + 0.470127 s_1_7  + 2000.000000 r_1_3_5 > 1.760100
s_2_5 + s_2_3 + 1000 r_2_3_5 >= 2
- s_2_5 - s_2_3 - 1000 r_2_3_5 >= -1001
t_2_5 - t_2_3 + 1000.000000 u_2_3_5 - 0.920812 s_2_3  + 0.460406 s_2_8  + 0.460406 s_2_7  + 2000.000000 r_2_3_5 > 5.191800
s_1_5 + s_1_4 + 1000 r_1_4_5 >= 2
- s_1_5 - s_1_4 - 1000 r_1_4_5 >= -1001
t_1_5 - t_1_4 + 1000.000000 u_1_4_5 - 0.470127 s_1_4  + 0.470127 s_1_7  + 2000.000000 r_1_4_5 > 4.117100
s_2_5 + s_2_4 + 1000 r_2_4_5 >= 2
- s_2_5 - s_2_4 - 1000 r_2_4_5 >= -1001
t_2_5 - t_2_4 + 1000.000000 u_2_4_5 - 0.460406 s_2_4  + 0.460406 s_2_7  + 2000.000000 r_2_4_5 > 7.992133
t_1_6 - t_1_5 - 1000.470127 s_1_5  + 0.470127 s_1_8  > -990.966178
t_1_6 - t_2_5 - 1000.460406 s_2_5  + 0.460406 s_2_8  > -980.995400
t_2_6 - t_1_5 - 1000.470127 s_1_5  + 0.470127 s_1_8  > -990.966178
t_2_6 - t_2_5 - 1000.460406 s_2_5  + 0.460406 s_2_8  > -980.995400
s_1_5 + s_1_7 + 1000 r_1_5_7 >= 2
- s_1_5 - s_1_7 - 1000 r_1_5_7 >= -1001
t_1_5 - t_1_7 - 1000.000000 u_1_5_7 - 0.000000 s_1_7  + 2000.000000 r_1_5_7 > -960.999600
s_2_5 + s_2_7 + 1000 r_2_5_7 >= 2
- s_2_5 - s_2_7 - 1000 r_2_5_7 >= -1001
t_2_5 - t_2_7 - 1000.000000 u_2_5_7 - 0.000000 s_2_7  + 2000.000000 r_2_5_7 > -958.300967
t_1_5 - t_1_8 - 1000.000000 s_1_8  > -962.497800
t_1_5 - t_2_8 - 1000.000000 s_2_8  > -959.373400
t_2_5 - t_1_8 - 1000.000000 s_1_8  > -962.497800
t_2_5 - t_2_8 - 1000.000000 s_2_8  > -959.373400
t_1_6 - t_1_7 - 1000.000000 s_1_7  > -960.999600
t_1_6 - t_2_7 - 1000.000000 s_2_7  > -958.300967
t_2_6 - t_1_7 - 1000.000000 s_1_7  > -960.999600
t_2_6 - t_2_7 - 1000.000000 s_2_7  > -958.300967
s_1_7 + s_1_5 + 1000 r_1_5_7 >= 2
- s_1_7 - s_1_5 - 1000 r_1_5_7 >= -1001
t_1_7 - t_1_5 + 1000.000000 u_1_5_7 - 0.470127 s_1_5  + 0.470127 s_1_8  + 2000.000000 r_1_5_7 > 9.033822
s_2_7 + s_2_5 + 1000 r_2_5_7 >= 2
- s_2_7 - s_2_5 - 1000 r_2_5_7 >= -1001
t_2_7 - t_2_5 + 1000.000000 u_2_5_7 - 0.460406 s_2_5  + 0.460406 s_2_8  + 2000.000000 r_2_5_7 > 19.004600
s_1_7 + s_1_8 + 1000 r_1_7_8 >= 2
- s_1_7 - s_1_8 - 1000 r_1_7_8 >= -1001
t_1_7 - t_1_8 - 1000.000000 u_1_7_8 - 0.000000 s_1_8  + 2000.000000 r_1_7_8 > -962.497800
s_2_7 + s_2_8 + 1000 r_2_7_8 >= 2
- s_2_7 - s_2_8 - 1000 r_2_7_8 >= -1001
t_2_7 - t_2_8 - 1000.000000 u_2_7_8 - 0.000000 s_2_8  + 2000.000000 r_2_7_8 > -959.373400
s_1_8 + s_1_2 + 1000 r_1_2_8 >= 2
- s_1_8 - s_1_2 - 1000 r_1_2_8 >= -1001
t_1_8 - t_1_2 + 1000.000000 u_1_2_8 - 0.470127 s_1_2  + 0.470127 s_1_7  + 2000.000000 r_1_2_8 > 19.100989
s_2_8 + s_2_2 + 1000 r_2_2_8 >= 2
- s_2_8 - s_2_2 - 1000 r_2_2_8 >= -1001
t_2_8 - t_2_2 + 1000.000000 u_2_2_8 - 0.460406 s_2_2  + 0.460406 s_2_7  + 2000.000000 r_2_2_8 > 38.813267
s_1_8 + s_1_4 + 1000 r_1_4_8 >= 2
- s_1_8 - s_1_4 - 1000 r_1_4_8 >= -1001
t_1_8 - t_1_4 + 1000.000000 u_1_4_8 - 0.470127 s_1_4  + 0.470127 s_1_7  + 2000.000000 r_1_4_8 > 4.117100
s_2_8 + s_2_4 + 1000 r_2_4_8 >= 2
- s_2_8 - s_2_4 - 1000 r_2_4_8 >= -1001
t_2_8 - t_2_4 + 1000.000000 u_2_4_8 - 0.460406 s_2_4  + 0.460406 s_2_7  + 2000.000000 r_2_4_8 > 7.992133
s_1_8 + s_1_7 + 1000 r_1_7_8 >= 2
- s_1_8 - s_1_7 - 1000 r_1_7_8 >= -1001
t_1_8 - t_1_7 + 1000.000000 u_1_7_8 - 0.000000 s_1_7  + 2000.000000 r_1_7_8 > 39.000400
s_2_8 + s_2_7 + 1000 r_2_7_8 >= 2
- s_2_8 - s_2_7 - 1000 r_2_7_8 >= -1001
t_2_8 - t_2_7 + 1000.000000 u_2_7_8 - 0.000000 s_2_7  + 2000.000000 r_2_7_8 > 41.699033
Binary
s_1_1
s_2_1
s_1_2
s_2_2
s_1_3
s_2_3
s_1_4
s_2_4
s_1_5
s_2_5
s_1_6
s_2_6
s_1_7
s_2_7
s_1_8
s_2_8
u_1_1_2
r_1_1_2
u_2_1_2
r_2_1_2
u_1_1_3
r_1_1_3
u_2_1_3
r_2_1_3
u_1_1_4
r_1_1_4
u_2_1_4
r_2_1_4
u_1_1_5
r_1_1_5
u_2_1_5
r_2_1_5
u_1_2_3
r_1_2_3
u_2_2_3
r_2_2_3
u_1_2_4
r_1_2_4
u_2_2_4
r_2_2_4
u_1_2_5
r_1_2_5
u_2_2_5
r_2_2_5
u_1_2_8
r_1_2_8
u_2_2_8
r_2_2_8
u_1_3_4
r_1_3_4
u_2_3_4
r_2_3_4
u_1_3_5
r_1_3_5
u_2_3_5
r_2_3_5
u_1_4_5
r_1_4_5
u_2_4_5
r_2_4_5
u_1_4_8
r_1_4_8
u_2_4_8
r_2_4_8
u_1_5_7
r_1_5_7
u_2_5_7
r_2_5_7
u_1_7_8
r_1_7_8
u_2_7_8
r_2_7_8

End
